(set-info :smt-lib-version 2.6)
(set-logic QF_UFLRA)
(set-info :source |
MathSat group

|)
(set-info :category "random")
(set-info :status unsat)
(declare-fun x0 () Real)
(declare-fun x1 () Real)
(declare-fun x2 () Real)
(declare-fun x3 () Real)
(declare-fun x4 () Real)
(declare-fun x5 () Real)
(declare-fun x6 () Real)
(declare-fun x7 () Real)
(declare-fun x8 () Real)
(declare-fun x9 () Real)
(declare-fun x10 () Real)
(declare-fun x11 () Real)
(declare-fun x12 () Real)
(declare-fun x13 () Real)
(declare-fun x14 () Real)
(declare-fun x15 () Real)
(declare-fun x16 () Real)
(declare-fun x17 () Real)
(declare-fun x18 () Real)
(declare-fun x19 () Real)
(declare-fun x20 () Real)
(declare-fun x21 () Real)
(declare-fun x22 () Real)
(declare-fun x23 () Real)
(declare-fun x24 () Real)
(declare-fun x25 () Real)
(declare-fun x26 () Real)
(declare-fun x27 () Real)
(declare-fun x28 () Real)
(declare-fun x29 () Real)
(declare-fun f0_1 (Real) Real)
(declare-fun f0_2 (Real Real) Real)
(declare-fun f0_3 (Real Real Real) Real)
(declare-fun f0_4 (Real Real Real Real) Real)
(declare-fun P0 () Bool)
(declare-fun P1 () Bool)
(declare-fun P2 () Bool)
(declare-fun P3 () Bool)
(declare-fun P4 () Bool)
(declare-fun P5 () Bool)
(declare-fun P6 () Bool)
(declare-fun P7 () Bool)
(declare-fun P8 () Bool)
(declare-fun P9 () Bool)
(declare-fun P10 () Bool)
(declare-fun P11 () Bool)
(declare-fun P12 () Bool)
(declare-fun P13 () Bool)
(declare-fun P14 () Bool)
(declare-fun P15 () Bool)
(declare-fun P16 () Bool)
(declare-fun P17 () Bool)
(declare-fun P18 () Bool)
(declare-fun P19 () Bool)
(declare-fun P20 () Bool)
(declare-fun P21 () Bool)
(declare-fun P22 () Bool)
(declare-fun P23 () Bool)
(declare-fun P24 () Bool)
(declare-fun P25 () Bool)
(declare-fun P26 () Bool)
(declare-fun P27 () Bool)
(declare-fun P28 () Bool)
(declare-fun P29 () Bool)
(assert (let ((?v_29 (< (- (- (* 41 x25) (* 8 x7)) (* 31 x9)) 13)) (?v_0 (<= (+ (- (* 8 x25) (* 8 x24)) (* 22 x16)) 6)) (?v_14 (* 7 x13)) (?v_23 (<= (- (+ (* 10 x2) (* 38 x11)) (* 26 x7)) 42)) (?v_35 (<= (- (+ (* 21 x18) (* 4 x18)) (* 7 x6)) 2)) (?v_8 (* 34 x5)) (?v_102 (< (- (+ (* 38 x25) (* 18 x21)) (* 6 x14)) 22)) (?v_5 (* 16 x5))) (let ((?v_73 (<= (- (+ (* 30 x22) ?v_14) (* 24 x27)) 16)) (?v_11 (= (f0_1 x1) (f0_1 x25))) (?v_6 (= x6 (f0_2 x24 x2))) (?v_95 (= (f0_2 x29 x16) x25)) (?v_99 (f0_1 x9))) (let ((?v_76 (= ?v_99 x5)) (?v_49 (= (f0_1 x27) (f0_2 x4 x11))) (?v_4 (f0_1 x3))) (let ((?v_72 (distinct ?v_4 x2)) (?v_60 (f0_1 x16))) (let ((?v_67 (distinct ?v_60 x18)) (?v_21 (distinct (f0_2 x19 x25) (f0_2 x19 x8))) (?v_27 (f0_1 x20))) (let ((?v_32 (distinct (f0_2 x17 x17) ?v_27)) (?v_10 (= x6 ?v_4)) (?v_57 (= (f0_1 x12) x21)) (?v_91 (distinct x5 (f0_2 x10 x5))) (?v_106 (distinct x10 (f0_2 x28 x24))) (?v_104 (= (f0_2 x25 x10) ?v_4)) (?v_22 (= x13 x13)) (?v_53 (distinct x0 x4)) (?v_86 (= ?v_4 (f0_2 x13 x5))) (?v_47 (= ?v_27 x23)) (?v_77 (distinct x17 (f0_2 x5 x24))) (?v_138 (= x7 (f0_2 x16 x6))) (?v_109 (= x27 (f0_2 x4 x9))) (?v_150 (= (f0_2 x20 x2) (f0_1 x23))) (?v_105 (= x23 x12)) (?v_97 (distinct x8 x18)) (?v_78 (distinct (f0_2 x29 x19) x14)) (?v_108 (= x17 ?v_99)) (?v_92 (distinct (f0_2 x1 x7) (f0_2 x13 x0))) (?v_13 (= (f0_2 x24 x29) x15)) (?v_7 (distinct (f0_2 x3 x9) ?v_60)) (?v_85 (distinct (f0_1 x21) (f0_1 x15))) (?v_19 (not P22)) (?v_24 (not P1))) (let ((?v_46 (not ?v_86)) (?v_141 (not P5)) (?v_75 (not ?v_92)) (?v_98 (not ?v_13)) (?v_115 (not P24)) (?v_12 (not ?v_138)) (?v_111 (not ?v_10)) (?v_37 (not ?v_29)) (?v_20 (not ?v_6))) (let ((?v_127 (or P28 ?v_20)) (?v_68 (not ?v_23)) (?v_28 (not P4)) (?v_65 (not P14)) (?v_34 (not P11)) (?v_112 (not ?v_57)) (?v_52 (not P15)) (?v_18 (not P2)) (?v_90 (not ?v_109)) (?v_87 (not ?v_7)) (?v_142 (not P25)) (?v_15 (not ?v_73)) (?v_26 (not P17)) (?v_42 (not P13)) (?v_69 (not ?v_22)) (?v_94 (not ?v_102)) (?v_44 (not ?v_49)) (?v_31 (not P28)) (?v_140 (not P19)) (?v_45 (not ?v_32)) (?v_38 (not P18)) (?v_125 (not ?v_0)) (?v_62 (not P21)) (?v_74 (not ?v_35)) (?v_84 (not ?v_95))) (let ((?v_114 (or ?v_78 ?v_44)) (?v_96 (not ?v_47)) (?v_149 (not P7)) (?v_61 (not P29)) (?v_50 (not P26)) (?v_70 (not ?v_21)) (?v_156 (not P20)) (?v_56 (not ?v_53)) (?v_145 (not ?v_67)) (?v_153 (not ?v_11)) (?v_121 (not P6)) (?v_139 (not ?v_77)) (?v_129 (not ?v_72)) (?v_93 (not ?v_105)) (?v_126 (not ?v_78)) (?v_144 (not P9)) (?v_83 (not ?v_104)) (?v_133 (not P8)) (?v_101 (not P16)) (?v_137 (not ?v_150)) (?v_100 (not P27)) (?v_117 (not ?v_91)) (?v_131 (not ?v_76)) (?v_154 (not ?v_108)) (?v_107 (not P12)) (?v_132 (not P0)) (?v_110 (not ?v_85)) (?v_122 (not P3)) (?v_157 (not ?v_106))) (let ((?v_159 (or ?v_106 ?v_107)) (?v_135 (not ?v_97)) (?v_155 (not P10)) (?v_158 (not P23)) (?v_161 (or ?v_49 ?v_73)) (?v_43 (<= (- (- (* 20 x11) 0) (* 29 x21)) 30))) (let ((?v_41 (not ?v_43)) (?v_82 (< (- (+ ?v_8 x27) ?v_8) 31)) (?v_25 (<= (+ (* 41 x14) (* 16 x16)) 13))) (let ((?v_54 (not ?v_25)) (?v_81 (<= (+ (- 0 (* 41 x26)) (* 31 x3)) 43))) (let ((?v_80 (not ?v_81)) (?v_123 (not ?v_82)) (?v_36 (<= (- (- (* 4 x11) ?v_5) (* 20 x15)) (- 31))) (?v_1 (<= (+ (* (- 40) x0) (* 32 x21)) 14)) (?v_103 (< (- (- (* (- 25) x27) (* 2 x24)) (* 41 x9)) (- 9)))) (let ((?v_16 (not ?v_103)) (?v_33 (< (+ (- (* (- 11) x20) (* 16 x18)) (* 9 x16)) (- 27))) (?v_2 (< (- (- (* (- 11) x15) ?v_14) (* 22 x7)) 36)) (?v_66 (< (+ (* (- 40) x3) (* 26 x16) (* 31 x1)) 37)) (?v_48 (<= (+ (* (- 36) x10) (* 21 x2) (* 19 x7)) (- 34)))) (let ((?v_3 (not ?v_2)) (?v_17 (<= (- (- ?v_5 0) (* 17 x5)) (- 27)))) (let ((?v_134 (not ?v_17)) (?v_9 (< (+ (* (- 3) x27) (* 35 x29) (* 20 x13)) (- 22))) (?v_30 (= (- (+ (* (- 40) x24) (* 20 x25)) (* 24 x21)) 2)) (?v_39 (<= (- (+ (* (- 40) x2) (* 28 x19)) (* 19 x20)) 40)) (?v_51 (not ?v_1)) (?v_119 (< (- (* (- 19) x28) (* 12 x22)) 40))) (let ((?v_63 (not ?v_119)) (?v_59 (<= (+ (- (* 24 x3) (* 18 x4)) (* 29 x24)) (- 42)))) (let ((?v_40 (not ?v_59)) (?v_130 (<= (+ (* 41 x18) (* 6 x10)) (- 23)))) (let ((?v_118 (not ?v_130)) (?v_89 (< (- (- (* 12 x29) x23) (* 24 x13)) (- 17))) (?v_88 (<= (+ (* (- 14) x22) (* 2 x12) (* 20 x14)) 20)) (?v_146 (or ?v_30 P15)) (?v_79 (< (- (- 0 (* 38 x18)) (* 20 x16)) (- 41))) (?v_64 (not ?v_33)) (?v_55 (not ?v_30)) (?v_58 (< (+ (- (* (- 18) x11) 0) (* 2 x10)) (- 17))) (?v_148 (not ?v_48)) (?v_71 (<= (+ (* 23 x24) (* 27 x25) (* 13 x14)) (- 32)))) (let ((?v_120 (not ?v_71)) (?v_116 (not ?v_79)) (?v_128 (not ?v_58)) (?v_113 (not ?v_88)) (?v_143 (not ?v_39)) (?v_151 (<= (+ (* (- 5) x17) (* 8 x27) (* 26 x23)) 11))) (let ((?v_124 (not ?v_151)) (?v_136 (not ?v_66)) (?v_152 (not ?v_9)) (?v_147 (not ?v_36)) (?v_160 (not ?v_89))) (and (and (and (and (and (and (and (and (and (and (and (and (and (and (and (and (and (and (and (and (and (and (and (and (and (and (and (and (and (and (and (and (and (and (and (and (and (and (and (and (and (and (and (and (and (and (and (and (and (and (and (and (and (and (and (and (and (and (and (and (and (and (and (and (and (and (and (and (and (and (and (and (and (and (and (and (and (and (and (and (and (and (and (and (and (and (and (and (and (and (and (and (and (and (and (and (and (and (and (and (and (and (and (and (and (and (and (and (and (and (and (and (and (and (and (and (and (and (and (and (and (and (and (and (and (and (and (and (and (and (and (and (and (and (and (and (and (and (and (and (and (and (and (and (and (and (and (and (and (and (and (and (and (and (and (and (and (and (and (and (and (and (and (and (and (and (and (and (and (and (and (and (and (and (and (and (and (and (and (and (and (and (and (and (and (and (and (and (and (and (and (and (and (and (and (and (and (and (and (and (and (and (and (and (and (and (and (and (and (and (and (and (and (and (and (and (and (and (and (and (and (and (and (and (and (and (and (and (and (and (and (and (and (and (and (and (and (and (and (and (and (and (and (and (and (and (and (and (and (and (and (and (and (and (and (and (and (and (and (and (and (and (and (and (and (and (and (and (and (and (and (and (and (and (and (and (and (and (and (and (and (and (and (and (and (and (and (and (and (and (and (and (and (and (and (and (and (and (and (and (and (and (and (and (and (and (and (and (and (and (and (and (and (and (and (and (and (and (and (and (and (and (and (and (and (and (and (and (and (and (and (and (and (and (and (and (and (and (and (and (and (and (and (and (and (and (and (and (and (and (and (and (and (and (and (and (and (and (and (and (and (and (and (and (and (and (and (and (and (and (and (and (and (and (and (and (and (and (and (and (and (and (and (and (and (and (and (and (and (and (and (and (and (and (and (and (and (and (and (and (and (and (and (and (and (and (and (and (and (and (and (and (and (and (and (and (and (and (and (and (and (and (and (and (and (and (and (and (and (and (and (and (and (and (and (and (and (and (and (and (and (and (and (and (and (and (and (and (and (or (or ?v_36 ?v_1) ?v_19) (or (or ?v_11 ?v_24) ?v_46)) (or (or ?v_6 ?v_85) P18)) (or (or ?v_0 ?v_16) ?v_33)) (or (or ?v_2 ?v_141) P28)) (or (or ?v_0 ?v_66) ?v_48)) (or (or ?v_75 ?v_98) ?v_115)) (or (or ?v_12 ?v_41) ?v_1)) (or (or ?v_3 ?v_22) ?v_7)) (or (or ?v_3 P4) ?v_53)) (or (or ?v_111 ?v_37) ?v_134)) (or ?v_127 ?v_68)) (or (or ?v_7 ?v_35) ?v_28)) (or (or ?v_65 ?v_6) ?v_0)) (or (or P4 ?v_9) P6)) (or (or ?v_34 ?v_21) P1)) (or (or ?v_112 ?v_52) ?v_30)) (or (or ?v_76 ?v_82) ?v_9)) (or (or P28 ?v_18) ?v_90)) (or (or ?v_7 ?v_87) ?v_39)) (or (or ?v_25 P19) ?v_10)) (or (or ?v_142 ?v_11) ?v_12)) (or (or ?v_13 ?v_15) ?v_26)) (or (or ?v_15 ?v_16) ?v_0)) (or (or ?v_51 ?v_63) ?v_42)) (or (or P2 ?v_17) P16)) (or (or ?v_40 ?v_72) ?v_18)) (or (or ?v_19 P15) ?v_20)) (or (or ?v_21 ?v_91) ?v_69)) (or (or ?v_23 ?v_20) P6)) (or (or ?v_7 ?v_24) ?v_25)) (or (or ?v_118 ?v_94) ?v_44)) (or (or ?v_6 ?v_31) P4)) (or (or ?v_140 ?v_26) ?v_45)) (or (or ?v_47 ?v_28) P17)) (or (or P12 ?v_89) P26)) (or (or ?v_29 ?v_88) ?v_38)) (or ?v_146 ?v_125)) (or (or P16 P9) P1)) (or (or ?v_62 P27) ?v_31)) (or (or P12 P21) ?v_29)) (or (or P0 ?v_32) ?v_79)) (or (or ?v_64 P5) ?v_29)) (or (or ?v_30 P4) ?v_34)) (or (or P3 ?v_34) ?v_74)) (or (or ?v_36 ?v_22) P16)) (or (or ?v_16 ?v_16) ?v_54)) (or (or ?v_37 ?v_38) ?v_39)) (or (or P26 ?v_40) ?v_41)) (or (or ?v_42 ?v_43) ?v_84)) (or ?v_114 ?v_15)) (or (or ?v_45 ?v_46) P1)) (or (or ?v_55 ?v_96) ?v_58)) (or (or ?v_149 ?v_148) P17)) (or (or ?v_61 ?v_49) ?v_50)) (or (or ?v_70 ?v_0) ?v_48)) (or (or P6 ?v_156) ?v_38)) (or (or ?v_42 P21) ?v_50)) (or (or P22 ?v_22) ?v_51)) (or (or ?v_52 ?v_17) P29)) (or (or ?v_56 ?v_54) ?v_55)) (or (or ?v_56 ?v_57) ?v_58)) (or (or P27 ?v_23) ?v_22)) (or (or ?v_36 ?v_59) ?v_145)) (or (or ?v_61 ?v_153) P6)) (or (or ?v_23 P13) ?v_62)) (or (or ?v_121 ?v_32) P21)) (or (or ?v_63 P27) ?v_139)) (or (or P20 ?v_20) ?v_64)) (or (or ?v_65 P28) ?v_66)) (or (or ?v_50 ?v_6) ?v_67)) (or (or ?v_80 ?v_68) P1)) (or (or ?v_120 ?v_69) ?v_70)) (or (or ?v_71 ?v_3) ?v_129)) (or (or P10 ?v_73) ?v_59)) (or (or ?v_48 ?v_10) ?v_74)) (or (or ?v_20 ?v_73) ?v_75)) (or (or ?v_7 ?v_76) ?v_93)) (or (or ?v_77 ?v_97) ?v_52)) (or (or P23 ?v_126) ?v_79)) (or (or ?v_51 ?v_56) ?v_144)) (or (or ?v_83 ?v_61) ?v_80)) (or (or ?v_1 ?v_133) ?v_116)) (or (or ?v_41 ?v_42) ?v_34)) (or (or ?v_34 ?v_81) ?v_65)) (or (or ?v_29 P19) ?v_48)) (or (or ?v_15 ?v_82) ?v_3)) (or (or ?v_53 ?v_30) ?v_32)) (or (or ?v_39 ?v_46) ?v_35)) (or (or ?v_83 ?v_26) P19)) (or (or ?v_84 ?v_101) ?v_32)) (or (or ?v_49 ?v_15) ?v_38)) (or (or ?v_43 ?v_85) ?v_86)) (or (or ?v_137 ?v_87) ?v_88)) (or (or ?v_76 ?v_43) ?v_85)) (or (or P1 P5) P16)) (or (or ?v_89 P7) P13)) (or (or ?v_100 P19) ?v_50)) (or (or ?v_41 ?v_90) ?v_18)) (or (or ?v_117 ?v_92) ?v_43)) (or (or P22 ?v_57) ?v_93)) (or (or ?v_94 ?v_2) ?v_38)) (or (or ?v_95 ?v_131) ?v_22)) (or (or ?v_96 ?v_72) ?v_22)) (or (or ?v_26 ?v_97) ?v_106)) (or (or ?v_36 ?v_98) ?v_45)) (or (or ?v_24 ?v_81) ?v_2)) (or (or ?v_80 ?v_44) ?v_154)) (or (or ?v_32 ?v_18) P29)) (or (or ?v_80 ?v_63) P15)) (or (or ?v_78 ?v_107) ?v_100)) (or (or ?v_101 ?v_102) P18)) (or (or ?v_96 ?v_103) ?v_132)) (or (or ?v_41 ?v_75) ?v_42)) (or (or P23 ?v_78) ?v_104)) (or (or ?v_34 ?v_105) ?v_2)) (or (or ?v_73 ?v_85) ?v_128)) (or (or ?v_20 ?v_110) ?v_41)) (or (or ?v_122 ?v_6) ?v_0)) (or (or ?v_81 ?v_52) ?v_157)) (or ?v_159 ?v_108)) (or (or ?v_109 ?v_113) ?v_72)) (or (or ?v_16 P10) P12)) (or (or ?v_76 ?v_110) ?v_9)) (or (or ?v_7 ?v_31) P14)) (or (or P24 ?v_135) ?v_91)) (or (or ?v_111 P9) ?v_33)) (or (or P28 ?v_24) ?v_77)) (or (or ?v_25 P17) ?v_3)) (or (or ?v_112 P28) ?v_80)) (or (or ?v_103 ?v_54) ?v_113)) (or (or P17 ?v_105) ?v_51)) (or ?v_114 P19)) (or (or ?v_15 ?v_115) ?v_123)) (or (or ?v_78 ?v_116) ?v_106)) (or (or ?v_65 ?v_54) ?v_117)) (or (or P3 P15) ?v_31)) (or (or ?v_49 P7) ?v_70)) (or (or P5 P22) P11)) (or (or ?v_143 ?v_22) P4)) (or (or ?v_91 ?v_111) ?v_118)) (or (or ?v_37 ?v_100) ?v_95)) (or (or ?v_106 ?v_53) ?v_119)) (or (or ?v_120 ?v_39) ?v_111)) (or (or ?v_121 ?v_17) P12)) (or (or ?v_124 ?v_122) ?v_98)) (or (or ?v_91 P19) ?v_119)) (or (or P24 ?v_100) P1)) (or (or ?v_123 ?v_71) P14)) (or (or P1 ?v_112) ?v_124)) (or (or ?v_81 ?v_91) P21)) (or (or ?v_108 P6) ?v_36)) (or (or ?v_125 ?v_121) ?v_126)) (or (or ?v_19 ?v_38) P16)) (or ?v_127 ?v_16)) (or (or ?v_83 ?v_128) ?v_91)) (or (or P23 ?v_51) ?v_55)) (or (or P13 ?v_46) ?v_44)) (or (or P0 P22) P23)) (or (or ?v_20 ?v_125) ?v_15)) (or (or ?v_47 ?v_20) P18)) (or (or ?v_129 ?v_50) ?v_13)) (or (or ?v_31 P29) ?v_79)) (or (or ?v_86 ?v_102) ?v_34)) (or (or ?v_130 ?v_115) ?v_41)) (or (or ?v_131 ?v_87) ?v_59)) (or (or ?v_126 ?v_52) ?v_39)) (or (or ?v_75 ?v_85) P4)) (or (or ?v_6 ?v_67) P4)) (or (or ?v_132 ?v_21) ?v_84)) (or (or ?v_49 ?v_128) ?v_133)) (or (or ?v_43 ?v_44) ?v_136)) (or (or ?v_134 ?v_59) ?v_108)) (or (or ?v_32 ?v_135) ?v_29)) (or (or ?v_92 ?v_136) P24)) (or (or ?v_45 ?v_115) ?v_106)) (or (or P27 ?v_11) P23)) (or (or ?v_137 ?v_86) ?v_138)) (or (or ?v_134 ?v_92) ?v_0)) (or (or ?v_103 P26) ?v_84)) (or (or ?v_58 ?v_109) ?v_86)) (or (or ?v_9 ?v_139) ?v_74)) (or (or ?v_22 P22) ?v_13)) (or (or ?v_152 ?v_7) P23)) (or (or ?v_67 ?v_28) P24)) (or (or ?v_106 ?v_86) ?v_140)) (or (or ?v_69 ?v_29) ?v_106)) (or (or ?v_128 ?v_41) ?v_59)) (or (or ?v_29 ?v_141) ?v_134)) (or (or ?v_49 ?v_12) P27)) (or (or ?v_41 ?v_36) P23)) (or (or ?v_77 ?v_119) P13)) (or (or ?v_88 ?v_3) ?v_32)) (or (or ?v_98 ?v_16) P22)) (or (or ?v_28 ?v_65) P10)) (or (or ?v_91 ?v_137) ?v_128)) (or (or ?v_3 ?v_41) ?v_147)) (or (or ?v_9 ?v_62) ?v_123)) (or (or ?v_117 P11) ?v_40)) (or (or P17 ?v_58) ?v_132)) (or (or ?v_57 ?v_3) P20)) (or (or P1 ?v_125) ?v_23)) (or (or ?v_10 ?v_71) ?v_32)) (or (or ?v_142 ?v_122) ?v_91)) (or (or ?v_86 ?v_10) P12)) (or (or ?v_121 P5) ?v_143)) (or (or ?v_25 P3) ?v_144)) (or (or P1 ?v_131) P16)) (or (or ?v_26 ?v_54) ?v_130)) (or (or ?v_77 ?v_84) ?v_69)) (or (or ?v_145 P21) ?v_49)) (or (or ?v_33 ?v_155) ?v_128)) (or (or ?v_134 ?v_125) ?v_3)) (or ?v_146 ?v_113)) (or (or ?v_80 P13) ?v_120)) (or (or ?v_70 P7) P14)) (or (or P2 ?v_135) ?v_147)) (or (or ?v_138 ?v_71) ?v_112)) (or (or ?v_68 ?v_96) P4)) (or (or ?v_115 ?v_29) P11)) (or (or P9 ?v_142) ?v_85)) (or (or ?v_126 ?v_89) ?v_85)) (or (or P6 ?v_23) ?v_148)) (or (or ?v_65 ?v_64) ?v_117)) (or (or P17 ?v_34) ?v_80)) (or (or ?v_149 ?v_144) ?v_1)) (or (or P24 ?v_116) ?v_124)) (or (or ?v_61 ?v_148) ?v_84)) (or (or P17 ?v_7) ?v_107)) (or (or ?v_86 P15) ?v_33)) (or (or ?v_116 P16) ?v_107)) (or (or ?v_118 ?v_113) ?v_0)) (or (or P17 ?v_150) ?v_64)) (or (or ?v_18 ?v_45) ?v_65)) (or (or ?v_44 P17) P11)) (or (or ?v_75 ?v_139) ?v_135)) (or (or P24 ?v_13) ?v_107)) (or (or P17 ?v_22) ?v_106)) (or (or ?v_84 P5) ?v_22)) (or (or ?v_151 P18) ?v_108)) (or (or ?v_63 ?v_143) ?v_135)) (or (or ?v_29 ?v_100) ?v_136)) (or (or ?v_18 ?v_3) ?v_149)) (or (or ?v_113 ?v_10) ?v_59)) (or (or ?v_82 ?v_81) P28)) (or (or P11 ?v_123) ?v_147)) (or (or ?v_18 ?v_94) ?v_89)) (or (or P3 ?v_105) ?v_35)) (or (or ?v_57 ?v_38) ?v_73)) (or (or ?v_81 ?v_101) ?v_31)) (or (or ?v_92 ?v_148) ?v_26)) (or (or ?v_72 ?v_48) ?v_88)) (or (or ?v_43 P7) ?v_77)) (or (or ?v_137 ?v_109) ?v_55)) (or (or ?v_76 ?v_69) ?v_138)) (or (or P14 ?v_21) ?v_63)) (or (or ?v_74 ?v_148) ?v_69)) (or (or ?v_70 ?v_112) ?v_34)) (or (or ?v_124 ?v_54) ?v_90)) (or (or ?v_125 ?v_152) ?v_62)) (or (or ?v_153 ?v_147) ?v_90)) (or (or ?v_144 ?v_2) P18)) (or (or P21 ?v_59) P1)) (or (or ?v_149 ?v_137) ?v_1)) (or (or ?v_160 ?v_149) ?v_97)) (or (or ?v_19 P4) ?v_98)) (or (or ?v_32 P16) ?v_39)) (or (or ?v_154 ?v_76) P21)) (or (or ?v_80 ?v_9) P3)) (or (or P24 ?v_113) ?v_1)) (or (or ?v_2 ?v_66) ?v_26)) (or (or ?v_34 P26) ?v_122)) (or (or ?v_131 ?v_0) ?v_65)) (or (or P6 ?v_129) ?v_132)) (or (or ?v_120 ?v_158) ?v_92)) (or (or ?v_86 ?v_74) P24)) (or (or ?v_71 ?v_119) ?v_129)) (or (or ?v_89 ?v_67) ?v_144)) (or (or ?v_100 ?v_67) ?v_20)) (or (or ?v_115 P23) ?v_128)) (or (or ?v_23 ?v_97) P7)) (or (or ?v_59 ?v_136) ?v_64)) (or (or ?v_25 ?v_53) ?v_17)) (or (or ?v_62 ?v_76) ?v_155)) (or (or ?v_98 ?v_113) ?v_85)) (or (or ?v_64 P10) ?v_63)) (or (or ?v_53 ?v_135) P21)) (or (or P2 P29) ?v_116)) (or (or ?v_128 ?v_92) ?v_136)) (or (or ?v_90 P1) ?v_34)) (or (or ?v_75 P16) ?v_12)) (or (or ?v_7 ?v_22) P19)) (or (or ?v_37 ?v_120) ?v_104)) (or (or ?v_97 ?v_32) ?v_90)) (or (or ?v_118 ?v_21) ?v_142)) (or (or ?v_113 ?v_25) P12)) (or (or ?v_7 ?v_58) P11)) (or (or ?v_144 ?v_106) ?v_148)) (or (or ?v_150 P17) ?v_100)) (or (or ?v_46 P11) ?v_42)) (or (or P13 ?v_156) ?v_147)) (or (or ?v_34 ?v_47) ?v_55)) (or (or ?v_84 ?v_2) ?v_15)) (or (or ?v_33 ?v_24) ?v_121)) (or (or ?v_84 ?v_126) ?v_81)) (or (or ?v_63 ?v_9) ?v_0)) (or (or ?v_97 ?v_2) ?v_17)) (or (or ?v_53 P2) ?v_136)) (or (or ?v_107 ?v_131) ?v_122)) (or (or ?v_21 P26) ?v_120)) (or (or ?v_57 P19) ?v_1)) (or (or ?v_2 P12) ?v_46)) (or (or ?v_37 P8) ?v_128)) (or (or ?v_2 P18) ?v_18)) (or (or ?v_98 ?v_105) ?v_129)) (or (or P19 ?v_24) ?v_98)) (or (or ?v_12 ?v_59) ?v_72)) (or (or ?v_128 P20) ?v_10)) (or (or ?v_109 P17) ?v_21)) (or (or ?v_94 ?v_87) ?v_3)) (or (or ?v_136 ?v_59) ?v_42)) (or (or ?v_44 ?v_125) P3)) (or (or ?v_71 ?v_83) ?v_106)) (or (or ?v_91 P27) P15)) (or (or ?v_83 P22) ?v_45)) (or (or P4 P10) ?v_113)) (or (or ?v_54 ?v_22) ?v_16)) (or (or ?v_115 ?v_125) ?v_151)) (or (or ?v_0 ?v_50) P4)) (or (or ?v_77 ?v_88) P19)) (or (or ?v_51 ?v_128) ?v_33)) (or (or ?v_38 ?v_128) ?v_70)) (or (or ?v_1 ?v_107) ?v_97)) (or (or ?v_130 ?v_152) P16)) (or (or ?v_77 ?v_148) P3)) (or (or ?v_13 ?v_157) ?v_111)) (or (or ?v_11 ?v_129) ?v_137)) (or (or ?v_73 ?v_109) P0)) (or (or ?v_157 ?v_15) ?v_130)) (or (or ?v_38 ?v_92) ?v_83)) (or (or ?v_70 ?v_151) ?v_71)) (or (or ?v_132 P14) ?v_93)) (or (or ?v_137 ?v_158) ?v_157)) (or (or P11 ?v_45) ?v_142)) (or (or ?v_93 ?v_61) ?v_74)) (or (or ?v_100 ?v_94) ?v_79)) (or (or ?v_20 ?v_70) ?v_138)) (or (or ?v_107 ?v_124) ?v_109)) (or (or ?v_151 ?v_1) P8)) (or (or ?v_0 ?v_130) ?v_64)) (or (or ?v_75 ?v_61) ?v_125)) (or (or P11 P12) ?v_89)) (or (or ?v_132 ?v_35) ?v_41)) (or (or ?v_121 ?v_156) ?v_143)) (or (or ?v_64 P21) ?v_93)) (or (or ?v_72 ?v_49) ?v_103)) (or (or ?v_62 ?v_121) ?v_71)) (or (or ?v_138 ?v_26) ?v_86)) (or (or ?v_15 ?v_149) P16)) (or (or ?v_133 ?v_103) ?v_100)) (or (or ?v_133 P13) P9)) (or (or ?v_129 ?v_101) ?v_58)) (or (or ?v_124 ?v_44) ?v_76)) (or (or P26 ?v_119) ?v_65)) (or (or P24 ?v_97) ?v_52)) (or (or ?v_118 P16) ?v_94)) (or (or ?v_20 ?v_116) ?v_126)) (or ?v_159 ?v_121)) (or (or ?v_69 ?v_41) ?v_144)) (or (or ?v_96 ?v_109) ?v_82)) (or (or ?v_152 ?v_41) ?v_62)) (or (or ?v_94 ?v_118) P2)) (or (or ?v_123 ?v_25) ?v_80)) (or (or ?v_105 ?v_137) ?v_100)) (or (or P28 ?v_95) ?v_3)) (or (or ?v_129 ?v_156) ?v_128)) (or (or ?v_6 ?v_75) ?v_96)) (or ?v_161 ?v_38)) (or (or ?v_76 ?v_29) ?v_6)) (or (or P11 ?v_39) ?v_126)) (or (or ?v_63 P23) ?v_64)) (or (or ?v_35 ?v_77) ?v_88)) (or (or ?v_29 ?v_38) ?v_62)) (or (or ?v_16 P11) ?v_75)) (or (or ?v_135 ?v_93) ?v_123)) (or (or ?v_17 ?v_64) ?v_57)) (or (or ?v_30 ?v_124) ?v_21)) (or (or ?v_138 ?v_121) P16)) (or (or ?v_155 ?v_68) P3)) (or (or ?v_150 P14) ?v_119)) (or (or ?v_1 ?v_32) ?v_17)) (or (or ?v_115 ?v_30) P2)) (or (or ?v_26 ?v_93) ?v_39)) (or (or ?v_78 P22) P13)) (or (or ?v_33 ?v_98) P3)) (or (or ?v_117 ?v_69) ?v_40)) (or (or ?v_76 ?v_17) ?v_16)) (or (or ?v_69 ?v_23) P14)) (or (or ?v_120 ?v_76) ?v_115)) (or (or ?v_30 ?v_88) ?v_75)) (or (or ?v_87 ?v_102) ?v_29)) (or (or P1 ?v_20) ?v_139)) (or (or P9 ?v_136) ?v_103)) (or (or ?v_2 ?v_1) ?v_78)) (or (or ?v_77 ?v_94) P3)) (or (or P2 ?v_121) P24)) (or (or P22 ?v_88) ?v_107)) (or (or ?v_132 ?v_150) ?v_152)) (or (or ?v_49 ?v_79) ?v_33)) (or (or ?v_156 ?v_3) ?v_19)) (or (or ?v_9 ?v_106) ?v_73)) (or (or P7 ?v_67) ?v_92)) (or (or ?v_2 ?v_91) ?v_86)) (or (or P5 ?v_24) ?v_40)) (or (or ?v_98 ?v_76) ?v_158)) (or (or P23 ?v_45) P8)) (or (or ?v_136 ?v_24) P11)) (or (or ?v_43 ?v_65) P2)) (or (or P11 ?v_71) ?v_53)) (or (or ?v_139 P10) ?v_89)) (or (or ?v_29 ?v_69) ?v_35)) (or (or ?v_46 ?v_141) ?v_113)) (or (or ?v_158 P22) ?v_135)) (or (or ?v_87 ?v_130) ?v_123)) (or (or ?v_0 ?v_154) ?v_64)) (or (or ?v_47 ?v_61) ?v_24)) (or (or ?v_89 ?v_52) ?v_154)) (or (or ?v_120 ?v_96) ?v_80)) (or (or ?v_17 ?v_102) ?v_95)) (or (or P14 P4) ?v_55)) (or (or ?v_132 ?v_41) ?v_24)) (or (or ?v_9 ?v_160) ?v_148)) (or (or ?v_87 ?v_47) P12)) (or (or P8 ?v_20) P10)) (or (or P5 ?v_118) ?v_147)) (or ?v_161 ?v_106)) (or (or ?v_152 P3) P8)) (or (or P19 ?v_116) ?v_44)) (or (or ?v_123 ?v_101) P25)) (or (or ?v_124 ?v_45) ?v_38)) (or (or ?v_68 ?v_24) ?v_82)) (or (or P19 ?v_112) ?v_102)) (or (or ?v_59 P21) ?v_145)) (or (or ?v_148 P22) ?v_129)) (or (or P9 ?v_45) ?v_28)) (or (or ?v_32 P24) ?v_137)) (or (or ?v_95 ?v_148) ?v_106)) (or (or ?v_2 ?v_105) ?v_121)) (or (or P24 ?v_23) P18)) (or (or ?v_43 ?v_82) ?v_67))))))))))))))))))))))))
(check-sat)
(exit)
